Instance0
Gap





22.50%
20.97%
10.11%
10.11%
10.11%
9.82%
9.44%
8.48%
7.08%
6.56%
5.87%
5.14%
4.46%
3.87%
3.30%
3.17%
3.00%
2.80%
2.56%
2.30%
2.03%
2.00%
1.87%
1.81%
1.80%
1.65%
1.63%
0
CPXPARAM_MIP_Cuts_CPXPARAM_MIP_Cuts_Gomory-CPXPARAM_MIP_Cuts_LiftProj-CPXPARAM_MIP_Cuts_FlowCovers 0
Instance1
CPXPARAM_MIP_Cuts_CPXPARAM_MIP_Cuts_Gomory-CPXPARAM_MIP_Cuts_LiftProj-CPXPARAM_MIP_Cuts_FlowCovers 14
Instance2
CPXPARAM_MIP_Cuts_CPXPARAM_MIP_Cuts_Gomory-CPXPARAM_MIP_Cuts_LiftProj-CPXPARAM_MIP_Cuts_FlowCovers 1
Instance3
Gap



69.73%
67.46%
65.89%
63.61%
63.32%
63.22%
62.89%
61.36%
57.92%
56.50%
56.29%
56.14%
55.00%
54.30%
54.02%
52.38%
51.18%
46.73%
40.93%
39.84%
38.36%
35.48%
34.13%
33.84%
31.98%
31.06%
29.86%
27.19%
25.89%
0
CPXPARAM_MIP_Cuts_CPXPARAM_MIP_Cuts_Gomory-CPXPARAM_MIP_Cuts_LiftProj-CPXPARAM_MIP_Cuts_FlowCovers 0
Instance4
CPXPARAM_MIP_Cuts_CPXPARAM_MIP_Cuts_Gomory-CPXPARAM_MIP_Cuts_LiftProj-CPXPARAM_MIP_Cuts_FlowCovers 13
Instance5
CPXPARAM_MIP_Cuts_CPXPARAM_MIP_Cuts_Gomory-CPXPARAM_MIP_Cuts_LiftProj-CPXPARAM_MIP_Cuts_FlowCovers 0
Instance6
Gap



0.35%
0.35%
0.35%
0.35%
0.35%
CPXPARAM_MIP_Cuts_CPXPARAM_MIP_Cuts_Gomory-CPXPARAM_MIP_Cuts_LiftProj-CPXPARAM_MIP_Cuts_FlowCovers 0
Instance7
CPXPARAM_MIP_Cuts_CPXPARAM_MIP_Cuts_Gomory-CPXPARAM_MIP_Cuts_LiftProj-CPXPARAM_MIP_Cuts_FlowCovers 0
Instance8
CPXPARAM_MIP_Cuts_CPXPARAM_MIP_Cuts_Gomory-CPXPARAM_MIP_Cuts_LiftProj-CPXPARAM_MIP_Cuts_FlowCovers 3
Instance9
Gap

0.00%
0
CPXPARAM_MIP_Cuts_CPXPARAM_MIP_Cuts_Gomory-CPXPARAM_MIP_Cuts_LiftProj-CPXPARAM_MIP_Cuts_FlowCovers 0
Instance10
CPXPARAM_MIP_Cuts_CPXPARAM_MIP_Cuts_Gomory-CPXPARAM_MIP_Cuts_LiftProj-CPXPARAM_MIP_Cuts_FlowCovers 0
Instance11
CPXPARAM_MIP_Cuts_CPXPARAM_MIP_Cuts_Gomory-CPXPARAM_MIP_Cuts_LiftProj-CPXPARAM_MIP_Cuts_FlowCovers 0
Instance12
Gap



6.27%
6.27%
6.27%
5.34%
5.20%
4.70%
4.59%
4.54%
4.46%
4.40%
4.12%
3.41%
2.91%
2.56%
2.40%
1.97%
0.34%
0
CPXPARAM_MIP_Cuts_CPXPARAM_MIP_Cuts_Gomory-CPXPARAM_MIP_Cuts_LiftProj-CPXPARAM_MIP_Cuts_FlowCovers 0
Instance13
CPXPARAM_MIP_Cuts_CPXPARAM_MIP_Cuts_Gomory-CPXPARAM_MIP_Cuts_LiftProj-CPXPARAM_MIP_Cuts_FlowCovers 5
Instance14
CPXPARAM_MIP_Cuts_CPXPARAM_MIP_Cuts_Gomory-CPXPARAM_MIP_Cuts_LiftProj-CPXPARAM_MIP_Cuts_FlowCovers 0
Instance15
Gap













57.85%
57.05%
56.26%
54.83%
52.71%
52.69%
52.55%
50.85%
49.58%
48.17%
46.24%
44.19%
43.94%
43.05%
41.88%
38.73%
38.43%
36.61%
35.60%
32.31%
31.24%
29.10%
28.10%
27.66%
26.16%
25.30%
24.49%
24.07%
23.63%
23.50%
21.13%
20.27%
19.91%
19.85%
19.41%
18.89%
18.44%
17.68%
16.03%
16.03%
16.03%
11.70%
9.40%
6.83%
5.34%
5.23%
5.12%
5.08%
5.08%
4.96%
4.96%
4.91%
4.68%
4.58%
0.16%
0
CPXPARAM_MIP_Cuts_CPXPARAM_MIP_Cuts_Gomory-CPXPARAM_MIP_Cuts_LiftProj-CPXPARAM_MIP_Cuts_FlowCovers 1
Instance16
CPXPARAM_MIP_Cuts_CPXPARAM_MIP_Cuts_Gomory-CPXPARAM_MIP_Cuts_LiftProj-CPXPARAM_MIP_Cuts_FlowCovers 7
Instance17
CPXPARAM_MIP_Cuts_CPXPARAM_MIP_Cuts_Gomory-CPXPARAM_MIP_Cuts_LiftProj-CPXPARAM_MIP_Cuts_FlowCovers 0
Instance18
Gap
111.50%
92.96%
92.96%
0.13%
0.13%
0.13%
0.13%
CPXPARAM_MIP_Cuts_CPXPARAM_MIP_Cuts_Gomory-CPXPARAM_MIP_Cuts_LiftProj-CPXPARAM_MIP_Cuts_FlowCovers 0
Instance19
CPXPARAM_MIP_Cuts_CPXPARAM_MIP_Cuts_Gomory-CPXPARAM_MIP_Cuts_LiftProj-CPXPARAM_MIP_Cuts_FlowCovers 0
Instance20
CPXPARAM_MIP_Cuts_CPXPARAM_MIP_Cuts_Gomory-CPXPARAM_MIP_Cuts_LiftProj-CPXPARAM_MIP_Cuts_FlowCovers 1
Instance21
Gap

23.59%
23.59%
23.59%
23.59%
CPXPARAM_MIP_Cuts_CPXPARAM_MIP_Cuts_Gomory-CPXPARAM_MIP_Cuts_LiftProj-CPXPARAM_MIP_Cuts_FlowCovers 0
Instance22
CPXPARAM_MIP_Cuts_CPXPARAM_MIP_Cuts_Gomory-CPXPARAM_MIP_Cuts_LiftProj-CPXPARAM_MIP_Cuts_FlowCovers 1
Instance23
CPXPARAM_MIP_Cuts_CPXPARAM_MIP_Cuts_Gomory-CPXPARAM_MIP_Cuts_LiftProj-CPXPARAM_MIP_Cuts_FlowCovers 4
Instance24
Gap






2.62%
2.62%
2.62%
2.48%
2.39%
2.33%
2.29%
2.27%
2.07%
2.07%
2.06%
1.80%
1.72%
1.51%
1.49%
1.48%
1.47%
1.02%
CPXPARAM_MIP_Cuts_CPXPARAM_MIP_Cuts_Gomory-CPXPARAM_MIP_Cuts_LiftProj-CPXPARAM_MIP_Cuts_FlowCovers 0
Instance25
CPXPARAM_MIP_Cuts_CPXPARAM_MIP_Cuts_Gomory-CPXPARAM_MIP_Cuts_LiftProj-CPXPARAM_MIP_Cuts_FlowCovers 12
Instance26
CPXPARAM_MIP_Cuts_CPXPARAM_MIP_Cuts_Gomory-CPXPARAM_MIP_Cuts_LiftProj-CPXPARAM_MIP_Cuts_FlowCovers 0
Instance27
Gap




























17.80%
17.80%
17.80%
17.40%
17.11%
16.93%
16.22%
16.06%
15.66%
15.42%
15.41%
15.38%
15.37%
15.36%
15.35%
15.30%
CPXPARAM_MIP_Cuts_CPXPARAM_MIP_Cuts_Gomory-CPXPARAM_MIP_Cuts_LiftProj-CPXPARAM_MIP_Cuts_FlowCovers 0
Instance28
CPXPARAM_MIP_Cuts_CPXPARAM_MIP_Cuts_Gomory-CPXPARAM_MIP_Cuts_LiftProj-CPXPARAM_MIP_Cuts_FlowCovers 13
Instance29
CPXPARAM_MIP_Cuts_CPXPARAM_MIP_Cuts_Gomory-CPXPARAM_MIP_Cuts_LiftProj-CPXPARAM_MIP_Cuts_FlowCovers 3
Instance30
Gap



0.01%
CPXPARAM_MIP_Cuts_CPXPARAM_MIP_Cuts_Gomory-CPXPARAM_MIP_Cuts_LiftProj-CPXPARAM_MIP_Cuts_FlowCovers 0
Instance31
CPXPARAM_MIP_Cuts_CPXPARAM_MIP_Cuts_Gomory-CPXPARAM_MIP_Cuts_LiftProj-CPXPARAM_MIP_Cuts_FlowCovers 2
Instance32
CPXPARAM_MIP_Cuts_CPXPARAM_MIP_Cuts_Gomory-CPXPARAM_MIP_Cuts_LiftProj-CPXPARAM_MIP_Cuts_FlowCovers 4
Instance33
Gap



0.02%
0.02%
0.02%
0.02%
CPXPARAM_MIP_Cuts_CPXPARAM_MIP_Cuts_Gomory-CPXPARAM_MIP_Cuts_LiftProj-CPXPARAM_MIP_Cuts_FlowCovers 0
Instance34
CPXPARAM_MIP_Cuts_CPXPARAM_MIP_Cuts_Gomory-CPXPARAM_MIP_Cuts_LiftProj-CPXPARAM_MIP_Cuts_FlowCovers 0
Instance35
CPXPARAM_MIP_Cuts_CPXPARAM_MIP_Cuts_Gomory-CPXPARAM_MIP_Cuts_LiftProj-CPXPARAM_MIP_Cuts_FlowCovers 4
Instance36
Gap

















8.73%
8.73%
8.73%
7.89%
7.57%
7.42%
7.35%
7.25%
7.18%
7.14%
7.10%
7.08%
6.92%
6.61%
6.55%
6.50%
6.38%
6.36%
6.33%
6.32%
6.29%
CPXPARAM_MIP_Cuts_CPXPARAM_MIP_Cuts_Gomory-CPXPARAM_MIP_Cuts_LiftProj-CPXPARAM_MIP_Cuts_FlowCovers 0
Instance37
CPXPARAM_MIP_Cuts_CPXPARAM_MIP_Cuts_Gomory-CPXPARAM_MIP_Cuts_LiftProj-CPXPARAM_MIP_Cuts_FlowCovers 14
Instance38
CPXPARAM_MIP_Cuts_CPXPARAM_MIP_Cuts_Gomory-CPXPARAM_MIP_Cuts_LiftProj-CPXPARAM_MIP_Cuts_FlowCovers 3
Instance39
Gap

37.35%
36.94%
34.33%
32.94%
31.71%
30.95%
30.18%
27.09%
25.78%
25.12%
24.89%
24.68%
24.26%
24.21%
24.11%
23.99%
23.43%
23.25%
22.84%
22.80%
22.44%
22.42%
22.38%
21.75%
21.44%
21.34%
20.99%
20.95%
20.75%
20.56%
20.45%
20.42%
20.39%
20.32%
20.31%
20.30%
20.13%
CPXPARAM_MIP_Cuts_CPXPARAM_MIP_Cuts_Gomory-CPXPARAM_MIP_Cuts_LiftProj-CPXPARAM_MIP_Cuts_FlowCovers 0
Instance40
CPXPARAM_MIP_Cuts_CPXPARAM_MIP_Cuts_Gomory-CPXPARAM_MIP_Cuts_LiftProj-CPXPARAM_MIP_Cuts_FlowCovers 15
Instance41
CPXPARAM_MIP_Cuts_CPXPARAM_MIP_Cuts_Gomory-CPXPARAM_MIP_Cuts_LiftProj-CPXPARAM_MIP_Cuts_FlowCovers 1
Instance42
Gap

1.86%
1.86%
1.86%
1.86%
1.86%
1.86%
1.40%
CPXPARAM_MIP_Cuts_CPXPARAM_MIP_Cuts_Gomory-CPXPARAM_MIP_Cuts_LiftProj-CPXPARAM_MIP_Cuts_FlowCovers 0
Instance43
CPXPARAM_MIP_Cuts_CPXPARAM_MIP_Cuts_Gomory-CPXPARAM_MIP_Cuts_LiftProj-CPXPARAM_MIP_Cuts_FlowCovers 0
Instance44
CPXPARAM_MIP_Cuts_CPXPARAM_MIP_Cuts_Gomory-CPXPARAM_MIP_Cuts_LiftProj-CPXPARAM_MIP_Cuts_FlowCovers 4
Instance45
Gap
112.51%
98.57%
98.57%
98.57%
29.55%
29.55%
CPXPARAM_MIP_Cuts_CPXPARAM_MIP_Cuts_Gomory-CPXPARAM_MIP_Cuts_LiftProj-CPXPARAM_MIP_Cuts_FlowCovers 0
Instance46
CPXPARAM_MIP_Cuts_CPXPARAM_MIP_Cuts_Gomory-CPXPARAM_MIP_Cuts_LiftProj-CPXPARAM_MIP_Cuts_FlowCovers 1
Instance47
CPXPARAM_MIP_Cuts_CPXPARAM_MIP_Cuts_Gomory-CPXPARAM_MIP_Cuts_LiftProj-CPXPARAM_MIP_Cuts_FlowCovers 4
Instance48
Gap



2.33%
2.33%
2.33%
1.65%
1.37%
1.28%
1.23%
0
CPXPARAM_MIP_Cuts_CPXPARAM_MIP_Cuts_Gomory-CPXPARAM_MIP_Cuts_LiftProj-CPXPARAM_MIP_Cuts_FlowCovers 0
Instance49
CPXPARAM_MIP_Cuts_CPXPARAM_MIP_Cuts_Gomory-CPXPARAM_MIP_Cuts_LiftProj-CPXPARAM_MIP_Cuts_FlowCovers 1
Instance50
CPXPARAM_MIP_Cuts_CPXPARAM_MIP_Cuts_Gomory-CPXPARAM_MIP_Cuts_LiftProj-CPXPARAM_MIP_Cuts_FlowCovers 8
Instance51
Gap



48.65%
44.83%
43.37%
42.40%
42.23%
42.14%
42.08%
39.92%
39.72%
37.15%
37.11%
36.05%
36.04%
35.92%
35.81%
35.73%
35.44%
CPXPARAM_MIP_Cuts_CPXPARAM_MIP_Cuts_Gomory-CPXPARAM_MIP_Cuts_LiftProj-CPXPARAM_MIP_Cuts_FlowCovers 0
Instance52
CPXPARAM_MIP_Cuts_CPXPARAM_MIP_Cuts_Gomory-CPXPARAM_MIP_Cuts_LiftProj-CPXPARAM_MIP_Cuts_FlowCovers 15
Instance53
CPXPARAM_MIP_Cuts_CPXPARAM_MIP_Cuts_Gomory-CPXPARAM_MIP_Cuts_LiftProj-CPXPARAM_MIP_Cuts_FlowCovers 0
Instance54
Gap
110.91%
93.14%
93.14%
0.05%
0.05%
0.05%
0
CPXPARAM_MIP_Cuts_CPXPARAM_MIP_Cuts_Gomory-CPXPARAM_MIP_Cuts_LiftProj-CPXPARAM_MIP_Cuts_FlowCovers 0
Instance55
CPXPARAM_MIP_Cuts_CPXPARAM_MIP_Cuts_Gomory-CPXPARAM_MIP_Cuts_LiftProj-CPXPARAM_MIP_Cuts_FlowCovers 1
Instance56
CPXPARAM_MIP_Cuts_CPXPARAM_MIP_Cuts_Gomory-CPXPARAM_MIP_Cuts_LiftProj-CPXPARAM_MIP_Cuts_FlowCovers 2
Instance57
Gap
114.31%
97.72%
97.72%
0.46%
0.46%
0.46%
0.46%
CPXPARAM_MIP_Cuts_CPXPARAM_MIP_Cuts_Gomory-CPXPARAM_MIP_Cuts_LiftProj-CPXPARAM_MIP_Cuts_FlowCovers 0
Instance58
CPXPARAM_MIP_Cuts_CPXPARAM_MIP_Cuts_Gomory-CPXPARAM_MIP_Cuts_LiftProj-CPXPARAM_MIP_Cuts_FlowCovers 0
Instance59
CPXPARAM_MIP_Cuts_CPXPARAM_MIP_Cuts_Gomory-CPXPARAM_MIP_Cuts_LiftProj-CPXPARAM_MIP_Cuts_FlowCovers 1
Instance60
Gap



5.02%
5.02%
5.02%
3.85%
3.37%
2.75%
2.58%
0
CPXPARAM_MIP_Cuts_CPXPARAM_MIP_Cuts_Gomory-CPXPARAM_MIP_Cuts_LiftProj-CPXPARAM_MIP_Cuts_FlowCovers 0
Instance61
CPXPARAM_MIP_Cuts_CPXPARAM_MIP_Cuts_Gomory-CPXPARAM_MIP_Cuts_LiftProj-CPXPARAM_MIP_Cuts_FlowCovers 3
Instance62
CPXPARAM_MIP_Cuts_CPXPARAM_MIP_Cuts_Gomory-CPXPARAM_MIP_Cuts_LiftProj-CPXPARAM_MIP_Cuts_FlowCovers 5
Instance63
Gap



33.12%
25.85%
23.85%
23.31%
22.47%
20.74%
20.50%
19.68%
19.47%
19.25%
19.08%
18.51%
18.19%
17.78%
17.67%
17.48%
17.48%

CPXPARAM_MIP_Cuts_CPXPARAM_MIP_Cuts_Gomory-CPXPARAM_MIP_Cuts_LiftProj-CPXPARAM_MIP_Cuts_FlowCovers 0
Instance64
CPXPARAM_MIP_Cuts_CPXPARAM_MIP_Cuts_Gomory-CPXPARAM_MIP_Cuts_LiftProj-CPXPARAM_MIP_Cuts_FlowCovers 8
Instance65
CPXPARAM_MIP_Cuts_CPXPARAM_MIP_Cuts_Gomory-CPXPARAM_MIP_Cuts_LiftProj-CPXPARAM_MIP_Cuts_FlowCovers 3
Instance66
Gap

0.39%
0.39%
0.39%
0.39%
0.39%
0.39%
0.39%
0.38%
CPXPARAM_MIP_Cuts_CPXPARAM_MIP_Cuts_Gomory-CPXPARAM_MIP_Cuts_LiftProj-CPXPARAM_MIP_Cuts_FlowCovers 0
Instance67
CPXPARAM_MIP_Cuts_CPXPARAM_MIP_Cuts_Gomory-CPXPARAM_MIP_Cuts_LiftProj-CPXPARAM_MIP_Cuts_FlowCovers 2
Instance68
CPXPARAM_MIP_Cuts_CPXPARAM_MIP_Cuts_Gomory-CPXPARAM_MIP_Cuts_LiftProj-CPXPARAM_MIP_Cuts_FlowCovers 7
Instance69
Gap



3.15%
3.15%
3.15%
3.15%
3.15%
2.30%
CPXPARAM_MIP_Cuts_CPXPARAM_MIP_Cuts_Gomory-CPXPARAM_MIP_Cuts_LiftProj-CPXPARAM_MIP_Cuts_FlowCovers 0
Instance70
CPXPARAM_MIP_Cuts_CPXPARAM_MIP_Cuts_Gomory-CPXPARAM_MIP_Cuts_LiftProj-CPXPARAM_MIP_Cuts_FlowCovers 3
Instance71
CPXPARAM_MIP_Cuts_CPXPARAM_MIP_Cuts_Gomory-CPXPARAM_MIP_Cuts_LiftProj-CPXPARAM_MIP_Cuts_FlowCovers 8
Instance72
Gap

10.00%
10.00%
8.85%
8.85%
8.85%
7.36%
6.63%
5.78%
5.15%
4.91%
4.84%
4.73%
4.55%
4.39%
3.77%
3.35%
3.12%
1.89%
0
CPXPARAM_MIP_Cuts_CPXPARAM_MIP_Cuts_Gomory-CPXPARAM_MIP_Cuts_LiftProj-CPXPARAM_MIP_Cuts_FlowCovers 0
Instance73
CPXPARAM_MIP_Cuts_CPXPARAM_MIP_Cuts_Gomory-CPXPARAM_MIP_Cuts_LiftProj-CPXPARAM_MIP_Cuts_FlowCovers 1
Instance74
CPXPARAM_MIP_Cuts_CPXPARAM_MIP_Cuts_Gomory-CPXPARAM_MIP_Cuts_LiftProj-CPXPARAM_MIP_Cuts_FlowCovers 0
Instance75
Gap



85.95%
80.42%
78.87%
71.29%
66.83%
64.16%
63.76%
62.94%
61.50%
59.27%
57.38%
57.07%
56.89%
56.40%
55.58%
53.41%
52.68%
51.66%
51.43%
50.78%
50.51%
50.30%
50.25%
50.24%
50.04%
50.01%
49.88%
49.87%
48.17%
CPXPARAM_MIP_Cuts_CPXPARAM_MIP_Cuts_Gomory-CPXPARAM_MIP_Cuts_LiftProj-CPXPARAM_MIP_Cuts_FlowCovers 0
Instance76
CPXPARAM_MIP_Cuts_CPXPARAM_MIP_Cuts_Gomory-CPXPARAM_MIP_Cuts_LiftProj-CPXPARAM_MIP_Cuts_FlowCovers 19
Instance77
CPXPARAM_MIP_Cuts_CPXPARAM_MIP_Cuts_Gomory-CPXPARAM_MIP_Cuts_LiftProj-CPXPARAM_MIP_Cuts_FlowCovers 0
Instance78
Gap
0.00%
CPXPARAM_MIP_Cuts_CPXPARAM_MIP_Cuts_Gomory-CPXPARAM_MIP_Cuts_LiftProj-CPXPARAM_MIP_Cuts_FlowCovers 0
Instance79
CPXPARAM_MIP_Cuts_CPXPARAM_MIP_Cuts_Gomory-CPXPARAM_MIP_Cuts_LiftProj-CPXPARAM_MIP_Cuts_FlowCovers 0
Instance80
CPXPARAM_MIP_Cuts_CPXPARAM_MIP_Cuts_Gomory-CPXPARAM_MIP_Cuts_LiftProj-CPXPARAM_MIP_Cuts_FlowCovers 0
Instance81
Gap

0.42%
0.42%
0.42%
0.42%
0.42%
0.33%
CPXPARAM_MIP_Cuts_CPXPARAM_MIP_Cuts_Gomory-CPXPARAM_MIP_Cuts_LiftProj-CPXPARAM_MIP_Cuts_FlowCovers 0
Instance82
CPXPARAM_MIP_Cuts_CPXPARAM_MIP_Cuts_Gomory-CPXPARAM_MIP_Cuts_LiftProj-CPXPARAM_MIP_Cuts_FlowCovers 0
Instance83
CPXPARAM_MIP_Cuts_CPXPARAM_MIP_Cuts_Gomory-CPXPARAM_MIP_Cuts_LiftProj-CPXPARAM_MIP_Cuts_FlowCovers 2
Instance84
Gap



11.69%
11.69%
11.69%
11.14%
10.83%
9.73%
9.51%
9.13%
8.89%
8.41%
8.10%
7.37%
6.57%
6.44%
6.32%
6.12%
6.12%
6.08%
6.01%
5.99%
5.96%
5.94%
5.89%
5.82%
5.80%
5.78%
5.69%
0
CPXPARAM_MIP_Cuts_CPXPARAM_MIP_Cuts_Gomory-CPXPARAM_MIP_Cuts_LiftProj-CPXPARAM_MIP_Cuts_FlowCovers 1
Instance85
CPXPARAM_MIP_Cuts_CPXPARAM_MIP_Cuts_Gomory-CPXPARAM_MIP_Cuts_LiftProj-CPXPARAM_MIP_Cuts_FlowCovers 15
Instance86
CPXPARAM_MIP_Cuts_CPXPARAM_MIP_Cuts_Gomory-CPXPARAM_MIP_Cuts_LiftProj-CPXPARAM_MIP_Cuts_FlowCovers 0
Instance87
Gap
111.49%
406.57%
82.87%
81.66%
79.43%
78.61%
77.93%
77.73%
77.69%
77.13%
75.43%
75.34%
75.27%
74.93%
74.84%
74.36%
73.92%
73.54%
73.20%
73.18%
71.83%
71.13%
70.75%
70.63%
32.06%
32.06%
32.06%
31.92%
28.47%
28.20%
27.63%
27.03%
26.94%
26.53%
24.57%
23.64%
22.94%
22.83%
22.55%
22.38%
22.30%
22.14%
22.00%
21.99%
21.84%
21.54%
21.52%
21.50%
21.50%
15.07%
CPXPARAM_MIP_Cuts_CPXPARAM_MIP_Cuts_Gomory-CPXPARAM_MIP_Cuts_LiftProj-CPXPARAM_MIP_Cuts_FlowCovers 0
Instance88
CPXPARAM_MIP_Cuts_CPXPARAM_MIP_Cuts_Gomory-CPXPARAM_MIP_Cuts_LiftProj-CPXPARAM_MIP_Cuts_FlowCovers 19
Instance89
CPXPARAM_MIP_Cuts_CPXPARAM_MIP_Cuts_Gomory-CPXPARAM_MIP_Cuts_LiftProj-CPXPARAM_MIP_Cuts_FlowCovers 2
Instance90
Gap
120.75%
227.70%
17.33%
17.33%
17.33%
17.33%
CPXPARAM_MIP_Cuts_CPXPARAM_MIP_Cuts_Gomory-CPXPARAM_MIP_Cuts_LiftProj-CPXPARAM_MIP_Cuts_FlowCovers 0
Instance91
CPXPARAM_MIP_Cuts_CPXPARAM_MIP_Cuts_Gomory-CPXPARAM_MIP_Cuts_LiftProj-CPXPARAM_MIP_Cuts_FlowCovers 2
Instance92
CPXPARAM_MIP_Cuts_CPXPARAM_MIP_Cuts_Gomory-CPXPARAM_MIP_Cuts_LiftProj-CPXPARAM_MIP_Cuts_FlowCovers 3
Instance93
Gap

5.20%
5.20%
5.20%
5.20%
5.20%
5.20%
5.20%
4.93%
CPXPARAM_MIP_Cuts_CPXPARAM_MIP_Cuts_Gomory-CPXPARAM_MIP_Cuts_LiftProj-CPXPARAM_MIP_Cuts_FlowCovers 0
Instance94
CPXPARAM_MIP_Cuts_CPXPARAM_MIP_Cuts_Gomory-CPXPARAM_MIP_Cuts_LiftProj-CPXPARAM_MIP_Cuts_FlowCovers 2
Instance95
CPXPARAM_MIP_Cuts_CPXPARAM_MIP_Cuts_Gomory-CPXPARAM_MIP_Cuts_LiftProj-CPXPARAM_MIP_Cuts_FlowCovers 6
Instance96
Gap




5.63%
5.63%
5.63%
5.34%
4.76%
4.61%
4.50%
4.31%
4.22%
4.11%
3.68%
3.33%
3.26%
2.89%
2.42%
2.36%
2.28%
2.27%
2.24%
2.23%
0
CPXPARAM_MIP_Cuts_CPXPARAM_MIP_Cuts_Gomory-CPXPARAM_MIP_Cuts_LiftProj-CPXPARAM_MIP_Cuts_FlowCovers 0
Instance97
CPXPARAM_MIP_Cuts_CPXPARAM_MIP_Cuts_Gomory-CPXPARAM_MIP_Cuts_LiftProj-CPXPARAM_MIP_Cuts_FlowCovers 13
Instance98
CPXPARAM_MIP_Cuts_CPXPARAM_MIP_Cuts_Gomory-CPXPARAM_MIP_Cuts_LiftProj-CPXPARAM_MIP_Cuts_FlowCovers 0
Instance99
Gap





54.22%
48.22%
43.42%
29.64%
26.95%
13.32%
13.32%
13.32%
13.32%
2.50%
0
CPXPARAM_MIP_Cuts_CPXPARAM_MIP_Cuts_Gomory-CPXPARAM_MIP_Cuts_LiftProj-CPXPARAM_MIP_Cuts_FlowCovers 0
Instance100
CPXPARAM_MIP_Cuts_CPXPARAM_MIP_Cuts_Gomory-CPXPARAM_MIP_Cuts_LiftProj-CPXPARAM_MIP_Cuts_FlowCovers 0
Instance101
CPXPARAM_MIP_Cuts_CPXPARAM_MIP_Cuts_Gomory-CPXPARAM_MIP_Cuts_LiftProj-CPXPARAM_MIP_Cuts_FlowCovers 2
Instance102
Gap



0.14%
0.14%
0.14%
0.14%
0.07%
CPXPARAM_MIP_Cuts_CPXPARAM_MIP_Cuts_Gomory-CPXPARAM_MIP_Cuts_LiftProj-CPXPARAM_MIP_Cuts_FlowCovers 0
Instance103
CPXPARAM_MIP_Cuts_CPXPARAM_MIP_Cuts_Gomory-CPXPARAM_MIP_Cuts_LiftProj-CPXPARAM_MIP_Cuts_FlowCovers 2
Instance104
CPXPARAM_MIP_Cuts_CPXPARAM_MIP_Cuts_Gomory-CPXPARAM_MIP_Cuts_LiftProj-CPXPARAM_MIP_Cuts_FlowCovers 5
Instance105
Gap



40.80%
40.80%
CPXPARAM_MIP_Cuts_CPXPARAM_MIP_Cuts_Gomory-CPXPARAM_MIP_Cuts_LiftProj-CPXPARAM_MIP_Cuts_FlowCovers 0
Instance106
CPXPARAM_MIP_Cuts_CPXPARAM_MIP_Cuts_Gomory-CPXPARAM_MIP_Cuts_LiftProj-CPXPARAM_MIP_Cuts_FlowCovers 1
Instance107
CPXPARAM_MIP_Cuts_CPXPARAM_MIP_Cuts_Gomory-CPXPARAM_MIP_Cuts_LiftProj-CPXPARAM_MIP_Cuts_FlowCovers 4
Instance108
Gap



7.12%
7.12%
7.12%
6.61%
5.81%
3.88%
3.83%
3.81%
3.80%
3.68%
3.55%
3.46%
3.38%
3.34%
3.01%
0
CPXPARAM_MIP_Cuts_CPXPARAM_MIP_Cuts_Gomory-CPXPARAM_MIP_Cuts_LiftProj-CPXPARAM_MIP_Cuts_FlowCovers 0
Instance109
CPXPARAM_MIP_Cuts_CPXPARAM_MIP_Cuts_Gomory-CPXPARAM_MIP_Cuts_LiftProj-CPXPARAM_MIP_Cuts_FlowCovers 8
Instance110
CPXPARAM_MIP_Cuts_CPXPARAM_MIP_Cuts_Gomory-CPXPARAM_MIP_Cuts_LiftProj-CPXPARAM_MIP_Cuts_FlowCovers 2
Instance111
Gap

































0
CPXPARAM_MIP_Cuts_CPXPARAM_MIP_Cuts_Gomory-CPXPARAM_MIP_Cuts_LiftProj-CPXPARAM_MIP_Cuts_FlowCovers 0
Instance112
CPXPARAM_MIP_Cuts_CPXPARAM_MIP_Cuts_Gomory-CPXPARAM_MIP_Cuts_LiftProj-CPXPARAM_MIP_Cuts_FlowCovers 19
Instance113
CPXPARAM_MIP_Cuts_CPXPARAM_MIP_Cuts_Gomory-CPXPARAM_MIP_Cuts_LiftProj-CPXPARAM_MIP_Cuts_FlowCovers 1
Instance114
Gap

0.21%
0.21%
0.21%
0.21%
0.00%
CPXPARAM_MIP_Cuts_CPXPARAM_MIP_Cuts_Gomory-CPXPARAM_MIP_Cuts_LiftProj-CPXPARAM_MIP_Cuts_FlowCovers 0
Instance115
CPXPARAM_MIP_Cuts_CPXPARAM_MIP_Cuts_Gomory-CPXPARAM_MIP_Cuts_LiftProj-CPXPARAM_MIP_Cuts_FlowCovers 0
Instance116
CPXPARAM_MIP_Cuts_CPXPARAM_MIP_Cuts_Gomory-CPXPARAM_MIP_Cuts_LiftProj-CPXPARAM_MIP_Cuts_FlowCovers 1
Instance117
Gap



0
CPXPARAM_MIP_Cuts_CPXPARAM_MIP_Cuts_Gomory-CPXPARAM_MIP_Cuts_LiftProj-CPXPARAM_MIP_Cuts_FlowCovers 0
Instance118
CPXPARAM_MIP_Cuts_CPXPARAM_MIP_Cuts_Gomory-CPXPARAM_MIP_Cuts_LiftProj-CPXPARAM_MIP_Cuts_FlowCovers 1
Instance119
CPXPARAM_MIP_Cuts_CPXPARAM_MIP_Cuts_Gomory-CPXPARAM_MIP_Cuts_LiftProj-CPXPARAM_MIP_Cuts_FlowCovers 4
